32      4       
15      20      15      11      
0       0       0       0       0       8       2       3       4       5       6       7       12      22      
6       10      13      2       1       6       9       13      14      15      18      21      
6       1       1       3       1       5       9       11      14      16      21      
5       6       1       1       3       3       9       10      14      
3       1       10      1       1       4       11      14      21      26      
9       1       1       1       6       2       8       9       
7       1       8       15      5       3       11      18      19      
3       2       8       6       1       6       19      20      21      23      25      26      
6       4       6       7       4       5       17      19      23      25      26      
7       4       8       10      7       5       15      17      21      23      31      
8       1       15      1       1       4       15      17      23      31      
7       7       3       1       3       2       14      26      
1       1       3       1       1       5       20      23      26      30      31      
6       1       6       5       5       2       19      20      
4       1       7       1       5       5       24      25      28      29      30      
6       1       6       3       6       3       20      26      29      
6       1       6       1       3       2       20      29      
5       10      5       7       3       2       20      29      
4       1       1       1       1       3       29      30      31      
8       7       7       3       5       2       24      28      
5       1       1       5       4       2       24      30      
7       7       1       2       5       2       24      31      
5       8       1       1       1       2       27      28      
3       12      8       1       1       1       27      
10      5       1       5       1       1       27      
4       1       1       3       1       1       28      
10      3       1       7       2       1       32      
3       1       12      1       1       1       32      
9       1       1       8       1       1       32      
7       7       7       4       1       1       32      
8       6       1       6       3       1       32      
0       0       0       0       0       0       
